%block lattice_cart
3.4769 0 0
0 3.4769 0
0 0 3.4769
%endblock lattice_cart

%block positions_frac
Li 0 0 0
Li 0.5 0.5 0.5
%endblock positions_frac
