%block lattice_cart
4.3806 0 0
0 4.3806 0
0 0 4.3806
%endblock lattice_cart

%block positions_frac
Li 0   0   0
Li 0   0.5 0.5
Li 0.5 0   0.5
Li 0.5 0.5 0
%endblock positions_frac
